% seed = 7527414

mint = 45;
% maxt = 109;

nActs = 22;
dur = [0,3,9,10,1,1,8,6,10,2,9,3,6,1,7,5,6,2,4,9,7,0];

nSkills = 4;
sreq = [| 0,0,0,0,
	| 2,1,1,1,
	| 3,3,3,1,
	| 2,2,3,2,
	| 1,1,1,1,
	| 2,1,2,2,
	| 3,3,1,2,
	| 3,1,3,1,
	| 2,2,3,1,
	| 2,2,2,3,
	| 2,3,3,1,
	| 1,2,2,1,
	| 2,1,3,1,
	| 3,2,1,2,
	| 3,2,3,2,
	| 2,3,3,3,
	| 2,1,2,2,
	| 2,3,2,3,
	| 2,2,3,1,
	| 2,2,3,2,
	| 2,1,2,1,
	| 0,0,0,0, |];

nResources = 25;
mastery = [| true,false,true,true,
	| true,false,true,false,
	| false,true,true,true,
	| true,false,false,false,
	| true,false,false,false,
	| true,false,true,true,
	| false,true,false,true,
	| true,true,true,false,
	| true,true,true,false,
	| true,false,true,false,
	| true,false,false,true,
	| true,true,false,true,
	| false,false,false,true,
	| false,false,true,false,
	| false,true,false,true,
	| true,false,false,false,
	| true,false,false,false,
	| true,false,false,true,
	| false,true,false,false,
	| true,true,false,false,
	| false,true,true,false,
	| true,false,true,true,
	| false,true,true,true,
	| false,true,false,false,
	| false,true,false,false, |];

nPrecs = 43;
pred = [1,1,1,2,2,2,3,3,3,4,4,4,5,5,5,6,6,6,7,7,8,8,9,9,9,10,10,10,11,11,12,12,13,13,13,14,15,16,17,18,19,20,21];
succ = [2,3,4,10,5,8,10,5,8,6,7,14,17,11,14,11,20,16,19,16,9,12,17,11,20,20,12,13,21,15,18,14,18,21,15,16,19,21,18,19,22,22,22];

nUnrels = 88;
unpred = [2,2,2,2,3,3,3,4,4,4,4,4,4,4,4,5,5,5,5,5,5,5,5,6,6,6,6,6,6,6,6,6,7,7,7,7,7,7,7,7,7,7,7,8,8,9,9,9,9,9,10,10,11,11,11,11,11,11,11,12,12,12,12,13,13,13,13,14,14,14,14,14,15,15,15,15,15,16,16,16,16,17,17,18,18,19,19,20];
unsucc = [3,4,6,7,4,6,7,5,8,9,10,12,13,17,18,6,7,8,9,10,12,13,20,7,8,9,10,12,13,14,17,18,8,9,10,11,12,13,14,15,17,18,20,10,13,10,12,13,14,16,11,17,12,13,14,16,17,18,20,13,15,17,20,14,16,17,20,15,17,18,19,20,16,17,18,20,21,17,18,19,20,20,21,20,21,20,21,21];

USEFUL_RES = [{},
	{1,2,3,4,5,6,7,8,9,10,11,12,13,14,15,16,17,18,19,20,21,22,23,24,25},
	{1,2,3,4,5,6,7,8,9,10,11,12,13,14,15,16,17,18,19,20,21,22,23,24,25},
	{1,2,3,4,5,6,7,8,9,10,11,12,13,14,15,16,17,18,19,20,21,22,23,24,25},
	{1,2,3,4,5,6,7,8,9,10,11,12,13,14,15,16,17,18,19,20,21,22,23,24,25},
	{1,2,3,4,5,6,7,8,9,10,11,12,13,14,15,16,17,18,19,20,21,22,23,24,25},
	{1,2,3,4,5,6,7,8,9,10,11,12,13,14,15,16,17,18,19,20,21,22,23,24,25},
	{1,2,3,4,5,6,7,8,9,10,11,12,13,14,15,16,17,18,19,20,21,22,23,24,25},
	{1,2,3,4,5,6,7,8,9,10,11,12,13,14,15,16,17,18,19,20,21,22,23,24,25},
	{1,2,3,4,5,6,7,8,9,10,11,12,13,14,15,16,17,18,19,20,21,22,23,24,25},
	{1,2,3,4,5,6,7,8,9,10,11,12,13,14,15,16,17,18,19,20,21,22,23,24,25},
	{1,2,3,4,5,6,7,8,9,10,11,12,13,14,15,16,17,18,19,20,21,22,23,24,25},
	{1,2,3,4,5,6,7,8,9,10,11,12,13,14,15,16,17,18,19,20,21,22,23,24,25},
	{1,2,3,4,5,6,7,8,9,10,11,12,13,14,15,16,17,18,19,20,21,22,23,24,25},
	{1,2,3,4,5,6,7,8,9,10,11,12,13,14,15,16,17,18,19,20,21,22,23,24,25},
	{1,2,3,4,5,6,7,8,9,10,11,12,13,14,15,16,17,18,19,20,21,22,23,24,25},
	{1,2,3,4,5,6,7,8,9,10,11,12,13,14,15,16,17,18,19,20,21,22,23,24,25},
	{1,2,3,4,5,6,7,8,9,10,11,12,13,14,15,16,17,18,19,20,21,22,23,24,25},
	{1,2,3,4,5,6,7,8,9,10,11,12,13,14,15,16,17,18,19,20,21,22,23,24,25},
	{1,2,3,4,5,6,7,8,9,10,11,12,13,14,15,16,17,18,19,20,21,22,23,24,25},
	{1,2,3,4,5,6,7,8,9,10,11,12,13,14,15,16,17,18,19,20,21,22,23,24,25},
	{}];

POTENTIAL_ACT = [{2,3,4,5,6,7,8,9,10,11,12,13,14,15,16,17,18,19,20,21},
	{2,3,4,5,6,7,8,9,10,11,12,13,14,15,16,17,18,19,20,21},
	{2,3,4,5,6,7,8,9,10,11,12,13,14,15,16,17,18,19,20,21},
	{2,3,4,5,6,7,8,9,10,11,12,13,14,15,16,17,18,19,20,21},
	{2,3,4,5,6,7,8,9,10,11,12,13,14,15,16,17,18,19,20,21},
	{2,3,4,5,6,7,8,9,10,11,12,13,14,15,16,17,18,19,20,21},
	{2,3,4,5,6,7,8,9,10,11,12,13,14,15,16,17,18,19,20,21},
	{2,3,4,5,6,7,8,9,10,11,12,13,14,15,16,17,18,19,20,21},
	{2,3,4,5,6,7,8,9,10,11,12,13,14,15,16,17,18,19,20,21},
	{2,3,4,5,6,7,8,9,10,11,12,13,14,15,16,17,18,19,20,21},
	{2,3,4,5,6,7,8,9,10,11,12,13,14,15,16,17,18,19,20,21},
	{2,3,4,5,6,7,8,9,10,11,12,13,14,15,16,17,18,19,20,21},
	{2,3,4,5,6,7,8,9,10,11,12,13,14,15,16,17,18,19,20,21},
	{2,3,4,5,6,7,8,9,10,11,12,13,14,15,16,17,18,19,20,21},
	{2,3,4,5,6,7,8,9,10,11,12,13,14,15,16,17,18,19,20,21},
	{2,3,4,5,6,7,8,9,10,11,12,13,14,15,16,17,18,19,20,21},
	{2,3,4,5,6,7,8,9,10,11,12,13,14,15,16,17,18,19,20,21},
	{2,3,4,5,6,7,8,9,10,11,12,13,14,15,16,17,18,19,20,21},
	{2,3,4,5,6,7,8,9,10,11,12,13,14,15,16,17,18,19,20,21},
	{2,3,4,5,6,7,8,9,10,11,12,13,14,15,16,17,18,19,20,21},
	{2,3,4,5,6,7,8,9,10,11,12,13,14,15,16,17,18,19,20,21},
	{2,3,4,5,6,7,8,9,10,11,12,13,14,15,16,17,18,19,20,21},
	{2,3,4,5,6,7,8,9,10,11,12,13,14,15,16,17,18,19,20,21},
	{2,3,4,5,6,7,8,9,10,11,12,13,14,15,16,17,18,19,20,21},
	{2,3,4,5,6,7,8,9,10,11,12,13,14,15,16,17,18,19,20,21}];
